log              1.log

units            metal
boundary         p p p
atom_style       atomic

read_data        1.data

pair_style       zero 10.0
pair_coeff       * *
mass             * 1.0

compute          b all sna/atom {rcutfac} {rfac0} {twojmax} {R_1} 1.0
compute          bsum all reduce sum c_b[*]

thermo           1
thermo_style     custom c_bsum[*]

timestep         0.001

run              0