log              1.log

units            metal
boundary         p p p
atom_style       atomic

read_data        1.data

pair_style       zero 10.0
pair_coeff       * *
mass             * 1.0

compute          b all sna/atom {rcutfac} {rfac0} {twojmax} {R_1} 1.0
dump             1 all custom 1 1.dump c_b[*]

timestep         0.001

run              0